<number of tasks>
50

<cycle time>
1000

<order strength>
0.896


<task times>
1 97
2 33
3 265
4 160
5 67
6 124
7 195
8 125
9 165
10 31
11 118
12 27
13 174
14 149
15 119
16 278
17 35
18 287
19 243
20 185
21 95
22 40
23 283
24 187
25 166
26 23
27 81
28 67
29 153
30 192
31 129
32 95
33 213
34 178
35 220
36 260
37 107
38 45
39 48
40 343
41 223
42 150
43 333
44 164
45 92
46 98
47 23
48 257
49 109
50 127

<precedence relations>
1,3
1,4
1,5
1,6
2,3
2,4
2,5
2,6
3,7
3,8
3,9
3,10
4,7
4,8
4,9
4,10
5,7
5,8
5,9
5,10
6,7
6,8
6,9
6,10
7,11
7,12
7,13
8,11
8,12
8,13
9,11
9,12
9,13
10,11
10,12
10,13
11,14
11,15
12,14
12,15
13,14
13,15
14,16
14,17
14,18
15,16
15,17
15,18
16,19
16,20
17,19
17,20
18,19
18,20
19,21
19,22
19,23
20,21
20,22
20,23
21,24
21,25
22,24
22,25
23,24
23,25
24,26
24,27
25,26
25,27
26,28
26,29
26,30
26,31
26,32
26,33
27,28
27,29
27,30
27,31
27,32
27,33
28,34
28,35
28,36
29,41
30,49
30,50
31,38
32,34
32,36
33,37
33,42
34,37
34,41
34,43
35,37
35,38
35,39
36,37
36,38
37,44
38,40
39,45
39,46
40,41
40,42
40,43
40,44
42,46
43,46
44,45
44,46
45,48
46,47
46,48
47,49
48,50

<end>
